[[84, 85, 76, 77, 75, 74, 66, 67, 68, 59, 58, 57, 56, 65, 64, 55, 46, 47, 38, 48, 49, 50, 39, 40, 41, 32, 31, 29, 37, 28, 30, 21, 22, 19, 20, 13, 12, 11, 10, 2, 3, 4, 14, 5, 6, 7, 8, 9], [18, 17, 16, 15, 23, 24, 25, 26, 27, 35, 36, 44, 34, 33, 42, 43, 45, 54, 53, 52, 51, 60, 61, 62, 63, 72, 81, 71, 70, 80, 69, 78, 79, 88, 89, 90, 99, 98, 97, 96, 87, 86, 95, 94, 93, 92, 91, 82, 83, 73]]